c File: instances/26_0.40_2.col
c
c Description: Random graph of size 26 vertices and P(0.39999999999999997) of edges between any two vertices.
p col 26 325
e 1 2
e 1 4
e 1 5
e 1 9
e 1 11
e 1 12
e 1 13
e 1 16
e 1 18
e 1 19
e 1 21
e 1 23
e 1 25
e 2 8
e 2 9
e 2 14
e 2 23
e 2 26
e 3 4
e 3 7
e 3 22
e 3 23
e 4 7
e 4 10
e 4 12
e 4 14
e 4 17
e 4 18
e 4 20
e 4 21
e 4 22
e 4 23
e 5 7
e 5 8
e 5 12
e 5 23
e 5 25
e 6 19
e 6 20
e 6 21
e 6 22
e 6 24
e 7 9
e 7 11
e 7 14
e 7 19
e 7 20
e 7 23
e 7 24
e 7 25
e 8 9
e 8 10
e 8 14
e 8 18
e 8 20
e 8 21
e 8 22
e 8 23
e 8 24
e 8 25
e 9 10
e 9 11
e 9 12
e 9 14
e 9 18
e 9 22
e 9 25
e 9 26
e 10 11
e 10 12
e 10 13
e 10 19
e 10 20
e 10 21
e 10 23
e 10 24
e 10 26
e 11 13
e 11 20
e 11 22
e 11 24
e 11 26
e 12 13
e 12 14
e 12 16
e 12 17
e 12 19
e 12 21
e 12 24
e 12 25
e 13 20
e 13 22
e 13 23
e 13 25
e 14 15
e 14 16
e 14 18
e 14 19
e 14 20
e 14 22
e 14 23
e 15 16
e 15 19
e 15 21
e 15 22
e 15 24
e 15 25
e 15 26
e 16 18
e 16 20
e 17 19
e 17 20
e 17 22
e 17 23
e 18 19
e 18 24
e 18 25
e 18 26
e 19 20
e 19 22
e 19 23
e 19 24
e 19 26
e 20 22
e 20 24
e 20 25
e 20 26
e 21 22
e 21 24
e 21 25
e 21 26
e 23 26
e 24 25
e 24 26